c colouring generated by benchmark framework
p edge 500 12458
v 1 5
v 2 7
v 3 9
v 4 7
v 5 9
v 6 8
v 7 9
v 8 2
v 9 13
v 10 4
v 11 0
v 12 15
v 13 3
v 14 6
v 15 7
v 16 5
v 17 12
v 18 11
v 19 6
v 20 8
v 21 5
v 22 7
v 23 6
v 24 14
v 25 9
v 26 11
v 27 10
v 28 1
v 29 16
v 30 10
v 31 7
v 32 1
v 33 2
v 34 6
v 35 13
v 36 1
v 37 3
v 38 5
v 39 0
v 40 4
v 41 12
v 42 0
v 43 13
v 44 10
v 45 10
v 46 14
v 47 3
v 48 1
v 49 13
v 50 6
v 51 2
v 52 0
v 53 12
v 54 7
v 55 3
v 56 4
v 57 5
v 58 7
v 59 10
v 60 15
v 61 2
v 62 8
v 63 4
v 64 8
v 65 1
v 66 7
v 67 7
v 68 5
v 69 5
v 70 1
v 71 8
v 72 5
v 73 10
v 74 0
v 75 6
v 76 5
v 77 7
v 78 10
v 79 6
v 80 5
v 81 0
v 82 10
v 83 17
v 84 4
v 85 7
v 86 1
v 87 3
v 88 15
v 89 5
v 90 1
v 91 14
v 92 6
v 93 11
v 94 5
v 95 14
v 96 8
v 97 2
v 98 6
v 99 9
v 100 2
v 101 5
v 102 9
v 103 13
v 104 6
v 105 6
v 106 16
v 107 14
v 108 6
v 109 10
v 110 3
v 111 6
v 112 1
v 113 7
v 114 5
v 115 11
v 116 13
v 117 8
v 118 15
v 119 9
v 120 4
v 121 0
v 122 6
v 123 6
v 124 8
v 125 14
v 126 14
v 127 8
v 128 11
v 129 9
v 130 4
v 131 12
v 132 12
v 133 14
v 134 8
v 135 0
v 136 0
v 137 8
v 138 11
v 139 6
v 140 4
v 141 11
v 142 2
v 143 4
v 144 16
v 145 0
v 146 15
v 147 1
v 148 6
v 149 2
v 150 1
v 151 14
v 152 16
v 153 9
v 154 9
v 155 2
v 156 7
v 157 7
v 158 7
v 159 12
v 160 12
v 161 0
v 162 12
v 163 10
v 164 3
v 165 5
v 166 13
v 167 2
v 168 1
v 169 14
v 170 4
v 171 3
v 172 5
v 173 13
v 174 13
v 175 2
v 176 8
v 177 12
v 178 3
v 179 6
v 180 8
v 181 5
v 182 6
v 183 4
v 184 15
v 185 1
v 186 15
v 187 12
v 188 2
v 189 1
v 190 2
v 191 0
v 192 10
v 193 8
v 194 11
v 195 11
v 196 1
v 197 4
v 198 13
v 199 6
v 200 7
v 201 3
v 202 7
v 203 2
v 204 3
v 205 2
v 206 3
v 207 10
v 208 8
v 209 7
v 210 10
v 211 8
v 212 5
v 213 4
v 214 13
v 215 6
v 216 3
v 217 10
v 218 0
v 219 10
v 220 3
v 221 12
v 222 11
v 223 7
v 224 12
v 225 2
v 226 13
v 227 14
v 228 1
v 229 8
v 230 8
v 231 11
v 232 7
v 233 12
v 234 9
v 235 9
v 236 0
v 237 9
v 238 0
v 239 14
v 240 1
v 241 2
v 242 9
v 243 16
v 244 1
v 245 12
v 246 8
v 247 6
v 248 9
v 249 11
v 250 2
v 251 4
v 252 10
v 253 1
v 254 14
v 255 2
v 256 1
v 257 8
v 258 4
v 259 9
v 260 2
v 261 13
v 262 11
v 263 13
v 264 0
v 265 8
v 266 14
v 267 14
v 268 1
v 269 0
v 270 12
v 271 5
v 272 14
v 273 4
v 274 0
v 275 8
v 276 5
v 277 13
v 278 0
v 279 9
v 280 9
v 281 7
v 282 9
v 283 7
v 284 9
v 285 8
v 286 3
v 287 2
v 288 3
v 289 15
v 290 5
v 291 10
v 292 13
v 293 13
v 294 8
v 295 0
v 296 13
v 297 14
v 298 13
v 299 13
v 300 15
v 301 14
v 302 10
v 303 1
v 304 12
v 305 11
v 306 7
v 307 2
v 308 0
v 309 10
v 310 15
v 311 5
v 312 2
v 313 4
v 314 3
v 315 9
v 316 16
v 317 10
v 318 4
v 319 6
v 320 10
v 321 3
v 322 11
v 323 3
v 324 6
v 325 7
v 326 1
v 327 11
v 328 4
v 329 11
v 330 2
v 331 0
v 332 1
v 333 9
v 334 7
v 335 4
v 336 3
v 337 4
v 338 11
v 339 4
v 340 1
v 341 1
v 342 15
v 343 3
v 344 1
v 345 9
v 346 3
v 347 3
v 348 14
v 349 4
v 350 11
v 351 4
v 352 12
v 353 0
v 354 13
v 355 7
v 356 11
v 357 16
v 358 5
v 359 11
v 360 14
v 361 0
v 362 8
v 363 12
v 364 3
v 365 10
v 366 6
v 367 3
v 368 12
v 369 5
v 370 2
v 371 10
v 372 3
v 373 12
v 374 9
v 375 7
v 376 8
v 377 15
v 378 0
v 379 11
v 380 9
v 381 5
v 382 7
v 383 10
v 384 15
v 385 5
v 386 3
v 387 14
v 388 11
v 389 0
v 390 2
v 391 3
v 392 12
v 393 4
v 394 6
v 395 3
v 396 14
v 397 7
v 398 13
v 399 10
v 400 6
v 401 4
v 402 9
v 403 7
v 404 1
v 405 10
v 406 2
v 407 8
v 408 13
v 409 0
v 410 2
v 411 8
v 412 9
v 413 0
v 414 1
v 415 2
v 416 9
v 417 4
v 418 4
v 419 10
v 420 5
v 421 0
v 422 13
v 423 6
v 424 14
v 425 0
v 426 12
v 427 15
v 428 5
v 429 13
v 430 4
v 431 10
v 432 3
v 433 1
v 434 8
v 435 11
v 436 2
v 437 13
v 438 4
v 439 12
v 440 14
v 441 8
v 442 12
v 443 12
v 444 6
v 445 4
v 446 9
v 447 6
v 448 2
v 449 8
v 450 7
v 451 5
v 452 7
v 453 4
v 454 6
v 455 0
v 456 2
v 457 5
v 458 14
v 459 3
v 460 2
v 461 4
v 462 4
v 463 1
v 464 12
v 465 16
v 466 9
v 467 7
v 468 8
v 469 10
v 470 12
v 471 4
v 472 5
v 473 2
v 474 2
v 475 4
v 476 15
v 477 10
v 478 5
v 479 11
v 480 0
v 481 5
v 482 2
v 483 12
v 484 14
v 485 3
v 486 11
v 487 8
v 488 11
v 489 9
v 490 13
v 491 0
v 492 17
v 493 11
v 494 0
v 495 10
v 496 13
v 497 9
v 498 6
v 499 9
v 500 9
